c Generated map
c Size: 8 * 8, weights in range: 1 to 10, walls: True, with ratio 0.1
c dim 8 of 10
c
p sp 64 94
c graph contains 64 nodes and 94 arcs
c
a 1 2 1
a 2 1 1
a 2 10 2
a 10 2 2
a 2 3 6
a 3 2 6
a 3 11 7
a 11 3 7
a 3 4 4
a 4 3 4
a 4 12 10
a 12 4 10
a 4 5 9
a 5 4 9
a 5 13 8
a 13 5 8
a 5 6 4
a 6 5 4
a 6 14 8
a 14 6 8
a 6 7 9
a 7 6 9
a 7 15 10
a 15 7 10
a 7 8 4
a 8 7 4
a 8 16 3
a 16 8 3
a 10 18 4
a 18 10 4
a 10 11 6
a 11 10 6
a 11 19 7
a 19 11 7
a 11 12 9
a 12 11 9
a 12 20 8
a 20 12 8
a 12 13 10
a 13 12 10
a 13 21 8
a 21 13 8
a 13 14 8
a 14 13 8
a 14 22 10
a 22 14 10
a 14 15 7
a 15 14 7
a 15 23 7
a 23 15 7
a 15 16 4
a 16 15 4
a 16 24 8
a 24 16 8
a 17 18 7
a 18 17 7
a 18 26 1
a 26 18 1
a 18 19 3
a 19 18 3
a 19 27 5
a 27 19 5
a 19 20 9
a 20 19 9
a 20 21 3
a 21 20 3
a 21 29 3
a 29 21 3
a 21 22 9
a 22 21 9
a 22 30 7
a 30 22 7
a 22 23 7
a 23 22 7
a 23 31 4
a 31 23 4
a 23 24 9
a 24 23 9
a 26 34 1
a 34 26 1
a 26 27 4
a 27 26 4
a 27 35 3
a 35 27 3
a 29 37 5
a 37 29 5
a 29 30 9
a 30 29 9
a 30 38 4
a 38 30 4
a 30 31 4
a 31 30 4
a 31 39 6
a 39 31 6
a 33 41 7
a 41 33 7
a 33 34 6
a 34 33 6
a 34 42 2
a 42 34 2
a 34 35 8
a 35 34 8
a 35 43 8
a 43 35 8
a 35 36 10
a 36 35 10
a 36 44 8
a 44 36 8
a 36 37 10
a 37 36 10
a 37 45 2
a 45 37 2
a 37 38 3
a 38 37 3
a 38 46 4
a 46 38 4
a 38 39 6
a 39 38 6
a 39 47 4
a 47 39 4
a 39 40 3
a 40 39 3
a 40 48 10
a 48 40 10
a 41 49 6
a 49 41 6
a 41 42 1
a 42 41 1
a 42 50 9
a 50 42 9
a 42 43 1
a 43 42 1
a 43 51 8
a 51 43 8
a 43 44 8
a 44 43 8
a 44 52 2
a 52 44 2
a 44 45 5
a 45 44 5
a 45 53 4
a 53 45 4
a 45 46 10
a 46 45 10
a 46 54 1
a 54 46 1
a 46 47 4
a 47 46 4
a 47 55 6
a 55 47 6
a 47 48 2
a 48 47 2
a 49 50 2
a 50 49 2
a 50 58 7
a 58 50 7
a 50 51 4
a 51 50 4
a 51 59 5
a 59 51 5
a 51 52 5
a 52 51 5
a 52 60 5
a 60 52 5
a 52 53 2
a 53 52 2
a 53 61 6
a 61 53 6
a 53 54 10
a 54 53 10
a 54 62 6
a 62 54 6
a 54 55 5
a 55 54 5
a 55 63 6
a 63 55 6
a 58 59 6
a 59 58 6
a 59 60 2
a 60 59 2
a 60 61 9
a 61 60 9
a 61 62 8
a 62 61 8
a 62 63 3
a 63 62 3
a 63 64 10
a 64 63 10
